(set-logic QF_LRA)
(declare-fun X0 () Real )
(declare-fun Y0 () Real )
(declare-fun X1 () Real )
(declare-fun Y1 () Real )
(declare-fun X2 () Real )
(declare-fun Y2 () Real )
(declare-fun X3 () Real )
(declare-fun Y3 () Real )
(declare-fun X4 () Real )
(declare-fun Y4 () Real )
(declare-fun X5 () Real )
(declare-fun Y5 () Real )
(declare-fun X6 () Real )
(declare-fun Y6 () Real )
(declare-fun X7 () Real )
(declare-fun Y7 () Real )
(declare-fun X8 () Real )
(declare-fun Y8 () Real )
(declare-fun X9 () Real )
(declare-fun Y9 () Real )
(declare-fun X10 () Real )
(declare-fun Y10 () Real )
(declare-fun X11 () Real )
(declare-fun Y11 () Real )
(declare-fun X12 () Real )
(declare-fun Y12 () Real )
(declare-fun X13 () Real )
(declare-fun Y13 () Real )
(declare-fun X14 () Real )
(declare-fun Y14 () Real )
(declare-fun Z () Real )
(assert ( and  
( or ( <= ( + X0 45 ) X1 )  ( <= ( + X1 67 ) X0 )  ( <= ( + Y0 11 ) Y1 )  ( <= ( + Y1 20 ) Y0 )  )
( or ( <= ( + X0 45 ) X2 )  ( <= ( + X2 87 ) X0 )  ( <= ( + Y0 11 ) Y2 )  ( <= ( + Y2 48 ) Y0 )  )
( or ( <= ( + X0 45 ) X3 )  ( <= ( + X3 4 ) X0 )  ( <= ( + Y0 11 ) Y3 )  ( <= ( + Y3 3 ) Y0 )  )
( or ( <= ( + X0 45 ) X4 )  ( <= ( + X4 45 ) X0 )  ( <= ( + Y0 11 ) Y4 )  ( <= ( + Y4 5 ) Y0 )  )
( or ( <= ( + X0 45 ) X5 )  ( <= ( + X5 40 ) X0 )  ( <= ( + Y0 11 ) Y5 )  ( <= ( + Y5 25 ) Y0 )  )
( or ( <= ( + X0 45 ) X6 )  ( <= ( + X6 75 ) X0 )  ( <= ( + Y0 11 ) Y6 )  ( <= ( + Y6 98 ) Y0 )  )
( or ( <= ( + X0 45 ) X7 )  ( <= ( + X7 60 ) X0 )  ( <= ( + Y0 11 ) Y7 )  ( <= ( + Y7 41 ) Y0 )  )
( or ( <= ( + X0 45 ) X8 )  ( <= ( + X8 64 ) X0 )  ( <= ( + Y0 11 ) Y8 )  ( <= ( + Y8 37 ) Y0 )  )
( or ( <= ( + X0 45 ) X9 )  ( <= ( + X9 80 ) X0 )  ( <= ( + Y0 11 ) Y9 )  ( <= ( + Y9 65 ) Y0 )  )
( or ( <= ( + X0 45 ) X10 )  ( <= ( + X10 10 ) X0 )  ( <= ( + Y0 11 ) Y10 )  ( <= ( + Y10 12 ) Y0 )  )
( or ( <= ( + X0 45 ) X11 )  ( <= ( + X11 64 ) X0 )  ( <= ( + Y0 11 ) Y11 )  ( <= ( + Y11 96 ) Y0 )  )
( or ( <= ( + X0 45 ) X12 )  ( <= ( + X12 45 ) X0 )  ( <= ( + Y0 11 ) Y12 )  ( <= ( + Y12 75 ) Y0 )  )
( or ( <= ( + X0 45 ) X13 )  ( <= ( + X13 2 ) X0 )  ( <= ( + Y0 11 ) Y13 )  ( <= ( + Y13 22 ) Y0 )  )
( or ( <= ( + X0 45 ) X14 )  ( <= ( + X14 48 ) X0 )  ( <= ( + Y0 11 ) Y14 )  ( <= ( + Y14 15 ) Y0 )  )
( or ( <= ( + X1 67 ) X2 )  ( <= ( + X2 87 ) X1 )  ( <= ( + Y1 20 ) Y2 )  ( <= ( + Y2 48 ) Y1 )  )
( or ( <= ( + X1 67 ) X3 )  ( <= ( + X3 4 ) X1 )  ( <= ( + Y1 20 ) Y3 )  ( <= ( + Y3 3 ) Y1 )  )
( or ( <= ( + X1 67 ) X4 )  ( <= ( + X4 45 ) X1 )  ( <= ( + Y1 20 ) Y4 )  ( <= ( + Y4 5 ) Y1 )  )
( or ( <= ( + X1 67 ) X5 )  ( <= ( + X5 40 ) X1 )  ( <= ( + Y1 20 ) Y5 )  ( <= ( + Y5 25 ) Y1 )  )
( or ( <= ( + X1 67 ) X6 )  ( <= ( + X6 75 ) X1 )  ( <= ( + Y1 20 ) Y6 )  ( <= ( + Y6 98 ) Y1 )  )
( or ( <= ( + X1 67 ) X7 )  ( <= ( + X7 60 ) X1 )  ( <= ( + Y1 20 ) Y7 )  ( <= ( + Y7 41 ) Y1 )  )
( or ( <= ( + X1 67 ) X8 )  ( <= ( + X8 64 ) X1 )  ( <= ( + Y1 20 ) Y8 )  ( <= ( + Y8 37 ) Y1 )  )
( or ( <= ( + X1 67 ) X9 )  ( <= ( + X9 80 ) X1 )  ( <= ( + Y1 20 ) Y9 )  ( <= ( + Y9 65 ) Y1 )  )
( or ( <= ( + X1 67 ) X10 )  ( <= ( + X10 10 ) X1 )  ( <= ( + Y1 20 ) Y10 )  ( <= ( + Y10 12 ) Y1 )  )
( or ( <= ( + X1 67 ) X11 )  ( <= ( + X11 64 ) X1 )  ( <= ( + Y1 20 ) Y11 )  ( <= ( + Y11 96 ) Y1 )  )
( or ( <= ( + X1 67 ) X12 )  ( <= ( + X12 45 ) X1 )  ( <= ( + Y1 20 ) Y12 )  ( <= ( + Y12 75 ) Y1 )  )
( or ( <= ( + X1 67 ) X13 )  ( <= ( + X13 2 ) X1 )  ( <= ( + Y1 20 ) Y13 )  ( <= ( + Y13 22 ) Y1 )  )
( or ( <= ( + X1 67 ) X14 )  ( <= ( + X14 48 ) X1 )  ( <= ( + Y1 20 ) Y14 )  ( <= ( + Y14 15 ) Y1 )  )
( or ( <= ( + X2 87 ) X3 )  ( <= ( + X3 4 ) X2 )  ( <= ( + Y2 48 ) Y3 )  ( <= ( + Y3 3 ) Y2 )  )
( or ( <= ( + X2 87 ) X4 )  ( <= ( + X4 45 ) X2 )  ( <= ( + Y2 48 ) Y4 )  ( <= ( + Y4 5 ) Y2 )  )
( or ( <= ( + X2 87 ) X5 )  ( <= ( + X5 40 ) X2 )  ( <= ( + Y2 48 ) Y5 )  ( <= ( + Y5 25 ) Y2 )  )
( or ( <= ( + X2 87 ) X6 )  ( <= ( + X6 75 ) X2 )  ( <= ( + Y2 48 ) Y6 )  ( <= ( + Y6 98 ) Y2 )  )
( or ( <= ( + X2 87 ) X7 )  ( <= ( + X7 60 ) X2 )  ( <= ( + Y2 48 ) Y7 )  ( <= ( + Y7 41 ) Y2 )  )
( or ( <= ( + X2 87 ) X8 )  ( <= ( + X8 64 ) X2 )  ( <= ( + Y2 48 ) Y8 )  ( <= ( + Y8 37 ) Y2 )  )
( or ( <= ( + X2 87 ) X9 )  ( <= ( + X9 80 ) X2 )  ( <= ( + Y2 48 ) Y9 )  ( <= ( + Y9 65 ) Y2 )  )
( or ( <= ( + X2 87 ) X10 )  ( <= ( + X10 10 ) X2 )  ( <= ( + Y2 48 ) Y10 )  ( <= ( + Y10 12 ) Y2 )  )
( or ( <= ( + X2 87 ) X11 )  ( <= ( + X11 64 ) X2 )  ( <= ( + Y2 48 ) Y11 )  ( <= ( + Y11 96 ) Y2 )  )
( or ( <= ( + X2 87 ) X12 )  ( <= ( + X12 45 ) X2 )  ( <= ( + Y2 48 ) Y12 )  ( <= ( + Y12 75 ) Y2 )  )
( or ( <= ( + X2 87 ) X13 )  ( <= ( + X13 2 ) X2 )  ( <= ( + Y2 48 ) Y13 )  ( <= ( + Y13 22 ) Y2 )  )
( or ( <= ( + X2 87 ) X14 )  ( <= ( + X14 48 ) X2 )  ( <= ( + Y2 48 ) Y14 )  ( <= ( + Y14 15 ) Y2 )  )
( or ( <= ( + X3 4 ) X4 )  ( <= ( + X4 45 ) X3 )  ( <= ( + Y3 3 ) Y4 )  ( <= ( + Y4 5 ) Y3 )  )
( or ( <= ( + X3 4 ) X5 )  ( <= ( + X5 40 ) X3 )  ( <= ( + Y3 3 ) Y5 )  ( <= ( + Y5 25 ) Y3 )  )
( or ( <= ( + X3 4 ) X6 )  ( <= ( + X6 75 ) X3 )  ( <= ( + Y3 3 ) Y6 )  ( <= ( + Y6 98 ) Y3 )  )
( or ( <= ( + X3 4 ) X7 )  ( <= ( + X7 60 ) X3 )  ( <= ( + Y3 3 ) Y7 )  ( <= ( + Y7 41 ) Y3 )  )
( or ( <= ( + X3 4 ) X8 )  ( <= ( + X8 64 ) X3 )  ( <= ( + Y3 3 ) Y8 )  ( <= ( + Y8 37 ) Y3 )  )
( or ( <= ( + X3 4 ) X9 )  ( <= ( + X9 80 ) X3 )  ( <= ( + Y3 3 ) Y9 )  ( <= ( + Y9 65 ) Y3 )  )
( or ( <= ( + X3 4 ) X10 )  ( <= ( + X10 10 ) X3 )  ( <= ( + Y3 3 ) Y10 )  ( <= ( + Y10 12 ) Y3 )  )
( or ( <= ( + X3 4 ) X11 )  ( <= ( + X11 64 ) X3 )  ( <= ( + Y3 3 ) Y11 )  ( <= ( + Y11 96 ) Y3 )  )
( or ( <= ( + X3 4 ) X12 )  ( <= ( + X12 45 ) X3 )  ( <= ( + Y3 3 ) Y12 )  ( <= ( + Y12 75 ) Y3 )  )
( or ( <= ( + X3 4 ) X13 )  ( <= ( + X13 2 ) X3 )  ( <= ( + Y3 3 ) Y13 )  ( <= ( + Y13 22 ) Y3 )  )
( or ( <= ( + X3 4 ) X14 )  ( <= ( + X14 48 ) X3 )  ( <= ( + Y3 3 ) Y14 )  ( <= ( + Y14 15 ) Y3 )  )
( or ( <= ( + X4 45 ) X5 )  ( <= ( + X5 40 ) X4 )  ( <= ( + Y4 5 ) Y5 )  ( <= ( + Y5 25 ) Y4 )  )
( or ( <= ( + X4 45 ) X6 )  ( <= ( + X6 75 ) X4 )  ( <= ( + Y4 5 ) Y6 )  ( <= ( + Y6 98 ) Y4 )  )
( or ( <= ( + X4 45 ) X7 )  ( <= ( + X7 60 ) X4 )  ( <= ( + Y4 5 ) Y7 )  ( <= ( + Y7 41 ) Y4 )  )
( or ( <= ( + X4 45 ) X8 )  ( <= ( + X8 64 ) X4 )  ( <= ( + Y4 5 ) Y8 )  ( <= ( + Y8 37 ) Y4 )  )
( or ( <= ( + X4 45 ) X9 )  ( <= ( + X9 80 ) X4 )  ( <= ( + Y4 5 ) Y9 )  ( <= ( + Y9 65 ) Y4 )  )
( or ( <= ( + X4 45 ) X10 )  ( <= ( + X10 10 ) X4 )  ( <= ( + Y4 5 ) Y10 )  ( <= ( + Y10 12 ) Y4 )  )
( or ( <= ( + X4 45 ) X11 )  ( <= ( + X11 64 ) X4 )  ( <= ( + Y4 5 ) Y11 )  ( <= ( + Y11 96 ) Y4 )  )
( or ( <= ( + X4 45 ) X12 )  ( <= ( + X12 45 ) X4 )  ( <= ( + Y4 5 ) Y12 )  ( <= ( + Y12 75 ) Y4 )  )
( or ( <= ( + X4 45 ) X13 )  ( <= ( + X13 2 ) X4 )  ( <= ( + Y4 5 ) Y13 )  ( <= ( + Y13 22 ) Y4 )  )
( or ( <= ( + X4 45 ) X14 )  ( <= ( + X14 48 ) X4 )  ( <= ( + Y4 5 ) Y14 )  ( <= ( + Y14 15 ) Y4 )  )
( or ( <= ( + X5 40 ) X6 )  ( <= ( + X6 75 ) X5 )  ( <= ( + Y5 25 ) Y6 )  ( <= ( + Y6 98 ) Y5 )  )
( or ( <= ( + X5 40 ) X7 )  ( <= ( + X7 60 ) X5 )  ( <= ( + Y5 25 ) Y7 )  ( <= ( + Y7 41 ) Y5 )  )
( or ( <= ( + X5 40 ) X8 )  ( <= ( + X8 64 ) X5 )  ( <= ( + Y5 25 ) Y8 )  ( <= ( + Y8 37 ) Y5 )  )
( or ( <= ( + X5 40 ) X9 )  ( <= ( + X9 80 ) X5 )  ( <= ( + Y5 25 ) Y9 )  ( <= ( + Y9 65 ) Y5 )  )
( or ( <= ( + X5 40 ) X10 )  ( <= ( + X10 10 ) X5 )  ( <= ( + Y5 25 ) Y10 )  ( <= ( + Y10 12 ) Y5 )  )
( or ( <= ( + X5 40 ) X11 )  ( <= ( + X11 64 ) X5 )  ( <= ( + Y5 25 ) Y11 )  ( <= ( + Y11 96 ) Y5 )  )
( or ( <= ( + X5 40 ) X12 )  ( <= ( + X12 45 ) X5 )  ( <= ( + Y5 25 ) Y12 )  ( <= ( + Y12 75 ) Y5 )  )
( or ( <= ( + X5 40 ) X13 )  ( <= ( + X13 2 ) X5 )  ( <= ( + Y5 25 ) Y13 )  ( <= ( + Y13 22 ) Y5 )  )
( or ( <= ( + X5 40 ) X14 )  ( <= ( + X14 48 ) X5 )  ( <= ( + Y5 25 ) Y14 )  ( <= ( + Y14 15 ) Y5 )  )
( or ( <= ( + X6 75 ) X7 )  ( <= ( + X7 60 ) X6 )  ( <= ( + Y6 98 ) Y7 )  ( <= ( + Y7 41 ) Y6 )  )
( or ( <= ( + X6 75 ) X8 )  ( <= ( + X8 64 ) X6 )  ( <= ( + Y6 98 ) Y8 )  ( <= ( + Y8 37 ) Y6 )  )
( or ( <= ( + X6 75 ) X9 )  ( <= ( + X9 80 ) X6 )  ( <= ( + Y6 98 ) Y9 )  ( <= ( + Y9 65 ) Y6 )  )
( or ( <= ( + X6 75 ) X10 )  ( <= ( + X10 10 ) X6 )  ( <= ( + Y6 98 ) Y10 )  ( <= ( + Y10 12 ) Y6 )  )
( or ( <= ( + X6 75 ) X11 )  ( <= ( + X11 64 ) X6 )  ( <= ( + Y6 98 ) Y11 )  ( <= ( + Y11 96 ) Y6 )  )
( or ( <= ( + X6 75 ) X12 )  ( <= ( + X12 45 ) X6 )  ( <= ( + Y6 98 ) Y12 )  ( <= ( + Y12 75 ) Y6 )  )
( or ( <= ( + X6 75 ) X13 )  ( <= ( + X13 2 ) X6 )  ( <= ( + Y6 98 ) Y13 )  ( <= ( + Y13 22 ) Y6 )  )
( or ( <= ( + X6 75 ) X14 )  ( <= ( + X14 48 ) X6 )  ( <= ( + Y6 98 ) Y14 )  ( <= ( + Y14 15 ) Y6 )  )
( or ( <= ( + X7 60 ) X8 )  ( <= ( + X8 64 ) X7 )  ( <= ( + Y7 41 ) Y8 )  ( <= ( + Y8 37 ) Y7 )  )
( or ( <= ( + X7 60 ) X9 )  ( <= ( + X9 80 ) X7 )  ( <= ( + Y7 41 ) Y9 )  ( <= ( + Y9 65 ) Y7 )  )
( or ( <= ( + X7 60 ) X10 )  ( <= ( + X10 10 ) X7 )  ( <= ( + Y7 41 ) Y10 )  ( <= ( + Y10 12 ) Y7 )  )
( or ( <= ( + X7 60 ) X11 )  ( <= ( + X11 64 ) X7 )  ( <= ( + Y7 41 ) Y11 )  ( <= ( + Y11 96 ) Y7 )  )
( or ( <= ( + X7 60 ) X12 )  ( <= ( + X12 45 ) X7 )  ( <= ( + Y7 41 ) Y12 )  ( <= ( + Y12 75 ) Y7 )  )
( or ( <= ( + X7 60 ) X13 )  ( <= ( + X13 2 ) X7 )  ( <= ( + Y7 41 ) Y13 )  ( <= ( + Y13 22 ) Y7 )  )
( or ( <= ( + X7 60 ) X14 )  ( <= ( + X14 48 ) X7 )  ( <= ( + Y7 41 ) Y14 )  ( <= ( + Y14 15 ) Y7 )  )
( or ( <= ( + X8 64 ) X9 )  ( <= ( + X9 80 ) X8 )  ( <= ( + Y8 37 ) Y9 )  ( <= ( + Y9 65 ) Y8 )  )
( or ( <= ( + X8 64 ) X10 )  ( <= ( + X10 10 ) X8 )  ( <= ( + Y8 37 ) Y10 )  ( <= ( + Y10 12 ) Y8 )  )
( or ( <= ( + X8 64 ) X11 )  ( <= ( + X11 64 ) X8 )  ( <= ( + Y8 37 ) Y11 )  ( <= ( + Y11 96 ) Y8 )  )
( or ( <= ( + X8 64 ) X12 )  ( <= ( + X12 45 ) X8 )  ( <= ( + Y8 37 ) Y12 )  ( <= ( + Y12 75 ) Y8 )  )
( or ( <= ( + X8 64 ) X13 )  ( <= ( + X13 2 ) X8 )  ( <= ( + Y8 37 ) Y13 )  ( <= ( + Y13 22 ) Y8 )  )
( or ( <= ( + X8 64 ) X14 )  ( <= ( + X14 48 ) X8 )  ( <= ( + Y8 37 ) Y14 )  ( <= ( + Y14 15 ) Y8 )  )
( or ( <= ( + X9 80 ) X10 )  ( <= ( + X10 10 ) X9 )  ( <= ( + Y9 65 ) Y10 )  ( <= ( + Y10 12 ) Y9 )  )
( or ( <= ( + X9 80 ) X11 )  ( <= ( + X11 64 ) X9 )  ( <= ( + Y9 65 ) Y11 )  ( <= ( + Y11 96 ) Y9 )  )
( or ( <= ( + X9 80 ) X12 )  ( <= ( + X12 45 ) X9 )  ( <= ( + Y9 65 ) Y12 )  ( <= ( + Y12 75 ) Y9 )  )
( or ( <= ( + X9 80 ) X13 )  ( <= ( + X13 2 ) X9 )  ( <= ( + Y9 65 ) Y13 )  ( <= ( + Y13 22 ) Y9 )  )
( or ( <= ( + X9 80 ) X14 )  ( <= ( + X14 48 ) X9 )  ( <= ( + Y9 65 ) Y14 )  ( <= ( + Y14 15 ) Y9 )  )
( or ( <= ( + X10 10 ) X11 )  ( <= ( + X11 64 ) X10 )  ( <= ( + Y10 12 ) Y11 )  ( <= ( + Y11 96 ) Y10 )  )
( or ( <= ( + X10 10 ) X12 )  ( <= ( + X12 45 ) X10 )  ( <= ( + Y10 12 ) Y12 )  ( <= ( + Y12 75 ) Y10 )  )
( or ( <= ( + X10 10 ) X13 )  ( <= ( + X13 2 ) X10 )  ( <= ( + Y10 12 ) Y13 )  ( <= ( + Y13 22 ) Y10 )  )
( or ( <= ( + X10 10 ) X14 )  ( <= ( + X14 48 ) X10 )  ( <= ( + Y10 12 ) Y14 )  ( <= ( + Y14 15 ) Y10 )  )
( or ( <= ( + X11 64 ) X12 )  ( <= ( + X12 45 ) X11 )  ( <= ( + Y11 96 ) Y12 )  ( <= ( + Y12 75 ) Y11 )  )
( or ( <= ( + X11 64 ) X13 )  ( <= ( + X13 2 ) X11 )  ( <= ( + Y11 96 ) Y13 )  ( <= ( + Y13 22 ) Y11 )  )
( or ( <= ( + X11 64 ) X14 )  ( <= ( + X14 48 ) X11 )  ( <= ( + Y11 96 ) Y14 )  ( <= ( + Y14 15 ) Y11 )  )
( or ( <= ( + X12 45 ) X13 )  ( <= ( + X13 2 ) X12 )  ( <= ( + Y12 75 ) Y13 )  ( <= ( + Y13 22 ) Y12 )  )
( or ( <= ( + X12 45 ) X14 )  ( <= ( + X14 48 ) X12 )  ( <= ( + Y12 75 ) Y14 )  ( <= ( + Y14 15 ) Y12 )  )
( or ( <= ( + X13 2 ) X14 )  ( <= ( + X14 48 ) X13 )  ( <= ( + Y13 22 ) Y14 )  ( <= ( + Y14 15 ) Y13 )  )
( >= X0 0)
( <= ( + X0 45) Z)
( >= Y0 0)
( <= ( + Y0 11 ) 193)
( >= X1 0)
( <= ( + X1 67) Z)
( >= Y1 0)
( <= ( + Y1 20 ) 193)
( >= X2 0)
( <= ( + X2 87) Z)
( >= Y2 0)
( <= ( + Y2 48 ) 193)
( >= X3 0)
( <= ( + X3 4) Z)
( >= Y3 0)
( <= ( + Y3 3 ) 193)
( >= X4 0)
( <= ( + X4 45) Z)
( >= Y4 0)
( <= ( + Y4 5 ) 193)
( >= X5 0)
( <= ( + X5 40) Z)
( >= Y5 0)
( <= ( + Y5 25 ) 193)
( >= X6 0)
( <= ( + X6 75) Z)
( >= Y6 0)
( <= ( + Y6 98 ) 193)
( >= X7 0)
( <= ( + X7 60) Z)
( >= Y7 0)
( <= ( + Y7 41 ) 193)
( >= X8 0)
( <= ( + X8 64) Z)
( >= Y8 0)
( <= ( + Y8 37 ) 193)
( >= X9 0)
( <= ( + X9 80) Z)
( >= Y9 0)
( <= ( + Y9 65 ) 193)
( >= X10 0)
( <= ( + X10 10) Z)
( >= Y10 0)
( <= ( + Y10 12 ) 193)
( >= X11 0)
( <= ( + X11 64) Z)
( >= Y11 0)
( <= ( + Y11 96 ) 193)
( >= X12 0)
( <= ( + X12 45) Z)
( >= Y12 0)
( <= ( + Y12 75 ) 193)
( >= X13 0)
( <= ( + X13 2) Z)
( >= Y13 0)
( <= ( + Y13 22 ) 193)
( >= X14 0)
( <= ( + X14 48) Z)
( >= Y14 0)
( <= ( + Y14 15 ) 193)
) )
(minimize Z)
(check-sat)
